29
0 0 1 2 0 3 1 2 2 4 2 3 5 6 4 7 5 6 3 3 1 8 7 7 9 6 8 9 5 8 5 7 6 10 10 11 4 12 11 8 13 13 9 12 4 14 14 10 15 16 17 18 15 18 11 11 17 19 13 20 21 1 19 7 16 12 2 8 20 17 21 22 15 18 23 21 17 22 5 16 24 12 24 24 25 20 14 23 22 26 25 0 27 28 23 20 28 25 5 27 